g3 1 1 0	# problem unknown
 20 14 1 0 14 	# vars, constraints, objectives, general inequalities, equalities  
 0 0 	# nonlinear constraints, objectives
 0 0	# network constraints: nonlinear, linear
 0 0 0 	# nonlinear vars in constraints, objectives, both
 0 0 0 1	# linear network variables; functions; arith, flags
 0 0 0 0 0 	# discrete variables: binary, integer, nonlinear (b,c,o)
 78 9 	# nonzeros in Jacobian, obj. gradient
 0 0	# max name lengths: constraints, variables
 0 0 0 0 0	# common exprs: b,c,o,c1,o1
C0
n0
C1
n0
C2
n0
C3
n0
C4
n0
C5
n0
C6
n0
C7
n0
C8
n0
C9
n0
C10
n0
C11
n0
C12
n0
C13
n0
O0 0
n0.0
x20
0 1.0
1 1.0
2 1.0
3 1.0
4 1.0
5 1.0
6 1.0
7 1.0
8 1.0
9 1.0
10 1.0
11 1.0
12 1.0
13 1.0
14 1.0
15 1.0
16 1.0
17 1.0
18 1.0
19 1.0
r
4 0.70785 
4 0.0 
4 0.0 
4 0.0 
4 0.0 
4 0.0 
4 0.0 
4 0.0 
4 0.0 
4 0.0 
4 0.0 
4 0.0 
4 0.0 
4 0.0 
b
0 0.0 1.0
0 0.0 1.0
0 0.0 1.0
0 0.0 1.0
0 0.0 1.0
0 0.0 1.0
0 0.0 1.0
0 0.0 1.0
0 0.0 1.0
0 0.0 1.0
0 0.0 1.0
0 0.0 1.0
0 0.0 1.0
0 0.0 1.0
0 0.0 1.0
0 0.0 1.0
0 0.0 1.0
0 0.0 1.0
0 0.0 1.0
0 0.0 1.0
k19
3
7
12
17
21
25
30
32
34
39
43
45
50
55
60
63
67
71
74
J0 10
0 1.0
10 1.0
12 2.0
13 2.0
14 2.0
15 1.0
16 2.0
17 2.0
18 1.0
19 2.0
J1 5
10 0.326
12 -101.0
15 200.0
16 0.06
17 0.02
J2 5
10 0.0066667
13 -1.03
16 200.0
18 0.06
19 0.02
J3 5
0 0.02
10 0.00066667
14 -1.01
17 200.0
19 0.06
J4 5
1 100.0
2 0.03
3 0.01
12 0.978
15 -201.0
J5 6
2 100.0
4 0.03
5 0.01
12 0.01
13 0.489
16 -101.03
J6 6
3 100.0
5 0.03
6 0.01
12 0.001
14 0.489
17 -101.03
J7 6
5 100.0
8 0.03
9 0.01
13 0.001
14 0.01
19 -1.04
J8 5
4 100.0
7 0.03
9 0.01
13 0.02
18 -1.06
J9 5
0 -1.02
6 100.0
9 0.03
11 0.01
14 0.002
J10 4
1 -2.5742e-06
3 0.00252
6 -0.61975
11 1.03
J11 4
1 -0.00257
2 0.25221
4 -6.2
7 1.09
J12 6
1 0.00629
2 -0.20555
3 -4.1106
5 101.04
6 505.1
9 -256.72
J13 6
2 0.00841
3 -0.08406
4 -0.20667
6 20.658
8 1.07
9 -10.5
G0 9
0 100.0
12 0.01
13 33.333
14 100.0
15 0.01
16 33.343
17 100.01
18 33.333
19 133.33
